NAME: kroC100
COMMENT: Francisco Romário, Rodolfo Rodrigues e Hércules Bruno - Vizinho Mais Proximo + 2-Opt
TYPE: TOUR
DIMENSION: 100
TOTAL WEIGHT: 21622
TOUR_SECTION
5
43
56
71
38
39
28
88
98
58
34
90
25
17
8
22
75
42
55
64
20
79
13
15
27
85
1
53
40
12
46
24
32
7
82
78
9
26
61
29
18
49
93
4
60
14
99
10
92
19
37
16
51
63
44
66
48
84
11
52
87
96
97
81
45
33
100
36
57
74
69
3
73
59
41
89
21
23
35
2
68
30
77
80
65
67
31
47
6
54
62
83
72
50
91
70
76
94
95
86
EOF
